1611942
4 48 7248
48 2 7938
2 65 19463
65 45 16726
45 27 8214
27 17 1445
17 9 5356
9 58 1777
58 15 6904
15 36 14151
36 8 11459
8 68 34471
68 35 19070
35 51 8926
51 39 11004
39 62 8740
62 37 30446
37 53 6554
53 44 84806
44 10 75759
10 18 28652
18 57 27906
57 33 88918
33 52 101509
52 14 39276
14 22 67712
22 31 39447
31 28 65445
28 50 10810
50 59 29672
59 16 10880
16 63 14689
63 3 34504
3 21 17216
21 38 42598
38 7 28523
7 43 52950
43 46 69394
46 34 36286
34 55 20835
55 26 61621
26 66 57991
66 11 13370
11 67 45840
67 64 14572
64 41 28668
41 30 5056
30 25 1249
25 6 11949
6 29 14521
29 60 6419
60 23 7498
23 49 4353
49 19 8895
19 5 15574
5 40 3130
40 56 3489
56 32 1427
32 12 4813
12 42 4831
42 61 10110
61 24 5437
24 1 15310
1 54 18207
54 13 13536
13 47 9114
47 20 12843
20 4 4440
